
Gurobi 7.5.1 (win64, Python) logging started 11/19/17 23:35:03

Academic license - for non-commercial use only

Gurobi 7.5.2 (linux64, Python) logging started Mon Nov 20 15:44:43 2017

Academic license - for non-commercial use only

Gurobi 7.5.2 (linux64, Python) logging started Fri Dec  1 12:44:54 2017


Gurobi 7.5.2 (linux64, Python) logging started Fri Dec  1 12:49:18 2017


Gurobi 7.5.2 (linux64, Python) logging started Fri Dec  1 12:57:57 2017


Gurobi 7.5.2 (linux64, Python) logging started Fri Dec  1 13:01:44 2017


Gurobi 7.5.2 (linux64, Python) logging started Fri Dec  1 13:12:20 2017


Gurobi 7.5.2 (linux64, Python) logging started Fri Dec  1 13:19:08 2017


Gurobi 7.5.2 (linux64, Python) logging started Fri Dec  1 13:23:56 2017


Gurobi 7.5.1 (win64, Python) logging started 12/03/17 12:26:16

Academic license - for non-commercial use only

Gurobi 7.5.1 (win64, Python) logging started 12/03/17 15:25:10

Academic license - for non-commercial use only

Gurobi 7.5.2 (linux64, Python) logging started Sun Dec  3 15:42:16 2017


Gurobi 7.5.2 (linux64, Python) logging started Sun Dec  3 15:45:59 2017


Gurobi 7.5.2 (linux64, Python) logging started Sun Dec  3 16:26:10 2017


Gurobi 7.5.2 (linux64, Python) logging started Sun Dec  3 16:36:50 2017


Gurobi 7.5.2 (linux64, Python) logging started Sun Dec  3 16:37:23 2017


Gurobi 7.5.2 (linux64, Python) logging started Sun Dec  3 16:37:25 2017


Gurobi 7.5.2 (linux64, Python) logging started Sun Dec  3 16:41:16 2017


Gurobi 7.5.2 (linux64, Python) logging started Mon Dec  4 06:21:40 2017


Gurobi 7.5.2 (linux64, Python) logging started Mon Dec  4 06:24:28 2017


Gurobi 7.5.2 (linux64, Python) logging started Mon Dec  4 10:59:20 2017

Academic license - for non-commercial use only

Gurobi 7.5.1 (win64, Python) logging started 12/04/17 12:25:29

Academic license - for non-commercial use only

Gurobi 7.5.2 (linux64, Python) logging started Mon Dec  4 16:41:56 2017

Academic license - for non-commercial use only

Gurobi 7.5.2 (linux64, Python) logging started Tue Dec  5 09:50:35 2017


Gurobi 7.5.1 (win64, Python) logging started 12/05/17 14:49:57

Academic license - for non-commercial use only

Gurobi 7.5.1 (win64, Python) logging started 12/05/17 14:56:30

Academic license - for non-commercial use only

Gurobi 7.5.1 (win64, Python) logging started 12/05/17 15:09:50

Academic license - for non-commercial use only

Gurobi 7.5.2 (linux64, Python) logging started Wed Dec  6 10:58:30 2017

Academic license - for non-commercial use only
